data;
# This is the data file for domestic subproblem
set MODE :=  one two;
set LINKING := shipping handling;
set CON site_contract site_mode_1 site_mode_2;

param dual_var:=
 shipping 0 handling 0;
 
param profit_c :=  
 one 11 two 7 ;
 
 param q_dual_convex := 84;
 
 param A: one two:=
 shipping 0.75 0.75
 handling 0.5 0.5;
 
 param T:    one two :=
site_contract 1 1
site_mode_1   1 0
site_mode_2   0 1;

param t:= site_contract 12  site_mode_1 15 site_mode_2 25;
